c A SAT instance generated from a 3-CNF formula that had 18 clauses and 6 variables
p cnf 6 18
-1 4 -3 0
-3 -2 5 0
3 -4 2 0
1 -3 -6 0
5 3 -2 0
-1 2 5 0
4 5 -1 0
2 -4 -6 0
2 -6 -4 0
2 -4 -6 0
-5 6 -3 0
-4 3 -6 0
3 1 4 0
4 -3 -2 0
4 6 1 0
1 -3 4 0
1 -6 -5 0
-1 3 -5 0
